# Solution for model r10_t27_m1_8
# Finished Task: 25 / 27
# Makespan: 658.0, Total Distance: 1430.0, Total Time: 0.6585
# R O S F
0 0 21 0.0 0.0
1 1 32 0.0 0.0
2 2 10 0.0 0.0
3 3 13 0.0 0.0
4 4 15 0.0 0.0
5 5 16 0.0 0.0
6 6 12 0.0 0.0
7 7 17 0.0 0.0
8 8 19 0.0 0.0
9 9 27 0.0 0.0
10 2 28 350.0 385.0
11 4 -1 439.0 477.0
12 6 20 256.0 291.0
13 3 30 224.0 256.0
14 -1 -1 -1.0 -1.0
15 4 11 200.0 229.0
16 5 23 221.0 241.0
17 7 22 141.0 167.0
18 0 26 479.0 512.0
19 8 31 178.0 203.0
20 6 -1 434.0 470.0
21 0 18 369.0 402.0
22 7 35 360.0 383.0
23 5 -1 427.0 454.0
24 3 -1 574.0 596.0
25 1 33 512.0 538.0
26 0 -1 538.0 574.0
27 9 -1 438.0 464.0
28 2 34 439.0 474.0
29 8 -1 495.0 532.0
30 3 24 402.0 441.0
31 8 29 396.0 418.0
32 1 25 402.0 439.0
33 1 -1 635.0 658.0
34 2 -1 565.0 596.0
35 7 -1 439.0 471.0
36 -1 -1 -1.0 -1.0
